! 2.45 GHz Bandpass Filter - synthesized example data
! 2-port S-parameters, 50 ohm reference
# Hz S RI R 50
1.500000e+09 +8.899107e-01 +2.960322e-01 -1.164053e-02 +1.885344e-03 -1.164053e-02 +1.885344e-03 +8.899107e-01 +2.960322e-01
1.505000e+09 +8.890317e-01 +2.980974e-01 -1.181035e-02 +1.927310e-03 -1.181035e-02 +1.927310e-03 +8.890317e-01 +2.980974e-01
1.510000e+09 +8.881377e-01 +3.001805e-01 -1.198305e-02 +1.970319e-03 -1.198305e-02 +1.970319e-03 +8.881377e-01 +3.001805e-01
1.515000e+09 +8.872284e-01 +3.022817e-01 -1.215869e-02 +2.014401e-03 -1.215869e-02 +2.014401e-03 +8.872284e-01 +3.022817e-01
1.520000e+09 +8.863035e-01 +3.044014e-01 -1.233734e-02 +2.059589e-03 -1.233734e-02 +2.059589e-03 +8.863035e-01 +3.044014e-01
1.525000e+09 +8.853625e-01 +3.065396e-01 -1.251906e-02 +2.105914e-03 -1.251906e-02 +2.105914e-03 +8.853625e-01 +3.065396e-01
1.530000e+09 +8.844053e-01 +3.086968e-01 -1.270391e-02 +2.153411e-03 -1.270391e-02 +2.153411e-03 +8.844053e-01 +3.086968e-01
1.535000e+09 +8.834314e-01 +3.108731e-01 -1.289197e-02 +2.202113e-03 -1.289197e-02 +2.202113e-03 +8.834314e-01 +3.108731e-01
1.540000e+09 +8.824404e-01 +3.130687e-01 -1.308330e-02 +2.252057e-03 -1.308330e-02 +2.252057e-03 +8.824404e-01 +3.130687e-01
1.545000e+09 +8.814320e-01 +3.152841e-01 -1.327799e-02 +2.303280e-03 -1.327799e-02 +2.303280e-03 +8.814320e-01 +3.152841e-01
1.550000e+09 +8.804057e-01 +3.175193e-01 -1.347609e-02 +2.355820e-03 -1.347609e-02 +2.355820e-03 +8.804057e-01 +3.175193e-01
1.555000e+09 +8.793613e-01 +3.197747e-01 -1.367770e-02 +2.409717e-03 -1.367770e-02 +2.409717e-03 +8.793613e-01 +3.197747e-01
1.560000e+09 +8.782982e-01 +3.220506e-01 -1.388288e-02 +2.465013e-03 -1.388288e-02 +2.465013e-03 +8.782982e-01 +3.220506e-01
1.565000e+09 +8.772160e-01 +3.243472e-01 -1.409171e-02 +2.521750e-03 -1.409171e-02 +2.521750e-03 +8.772160e-01 +3.243472e-01
1.570000e+09 +8.761144e-01 +3.266648e-01 -1.430429e-02 +2.579972e-03 -1.430429e-02 +2.579972e-03 +8.761144e-01 +3.266648e-01
1.575000e+09 +8.749928e-01 +3.290036e-01 -1.452070e-02 +2.639725e-03 -1.452070e-02 +2.639725e-03 +8.749928e-01 +3.290036e-01
1.580000e+09 +8.738508e-01 +3.313641e-01 -1.474101e-02 +2.701057e-03 -1.474101e-02 +2.701057e-03 +8.738508e-01 +3.313641e-01
1.585000e+09 +8.726879e-01 +3.337464e-01 -1.496533e-02 +2.764017e-03 -1.496533e-02 +2.764017e-03 +8.726879e-01 +3.337464e-01
1.590000e+09 +8.715037e-01 +3.361509e-01 -1.519374e-02 +2.828655e-03 -1.519374e-02 +2.828655e-03 +8.715037e-01 +3.361509e-01
1.595000e+09 +8.702976e-01 +3.385778e-01 -1.542635e-02 +2.895026e-03 -1.542635e-02 +2.895026e-03 +8.702976e-01 +3.385778e-01
1.600000e+09 +8.690692e-01 +3.410274e-01 -1.566324e-02 +2.963182e-03 -1.566324e-02 +2.963182e-03 +8.690692e-01 +3.410274e-01
1.605000e+09 +8.678178e-01 +3.435002e-01 -1.590451e-02 +3.033183e-03 -1.590451e-02 +3.033183e-03 +8.678178e-01 +3.435002e-01
1.610000e+09 +8.665430e-01 +3.459963e-01 -1.615028e-02 +3.105086e-03 -1.615028e-02 +3.105086e-03 +8.665430e-01 +3.459963e-01
1.615000e+09 +8.652442e-01 +3.485161e-01 -1.640065e-02 +3.178953e-03 -1.640065e-02 +3.178953e-03 +8.652442e-01 +3.485161e-01
1.620000e+09 +8.639209e-01 +3.510599e-01 -1.665572e-02 +3.254847e-03 -1.665572e-02 +3.254847e-03 +8.639209e-01 +3.510599e-01
1.625000e+09 +8.625723e-01 +3.536280e-01 -1.691561e-02 +3.332834e-03 -1.691561e-02 +3.332834e-03 +8.625723e-01 +3.536280e-01
1.630000e+09 +8.611980e-01 +3.562208e-01 -1.718044e-02 +3.412983e-03 -1.718044e-02 +3.412983e-03 +8.611980e-01 +3.562208e-01
1.635000e+09 +8.597972e-01 +3.588386e-01 -1.745032e-02 +3.495366e-03 -1.745032e-02 +3.495366e-03 +8.597972e-01 +3.588386e-01
1.640000e+09 +8.583694e-01 +3.614817e-01 -1.772537e-02 +3.580055e-03 -1.772537e-02 +3.580055e-03 +8.583694e-01 +3.614817e-01
1.645000e+09 +8.569138e-01 +3.641505e-01 -1.800573e-02 +3.667127e-03 -1.800573e-02 +3.667127e-03 +8.569138e-01 +3.641505e-01
1.650000e+09 +8.554298e-01 +3.668452e-01 -1.829152e-02 +3.756664e-03 -1.829152e-02 +3.756664e-03 +8.554298e-01 +3.668452e-01
1.655000e+09 +8.539167e-01 +3.695663e-01 -1.858288e-02 +3.848746e-03 -1.858288e-02 +3.848746e-03 +8.539167e-01 +3.695663e-01
1.660000e+09 +8.523738e-01 +3.723142e-01 -1.887995e-02 +3.943462e-03 -1.887995e-02 +3.943462e-03 +8.523738e-01 +3.723142e-01
1.665000e+09 +8.508002e-01 +3.750890e-01 -1.918286e-02 +4.040900e-03 -1.918286e-02 +4.040900e-03 +8.508002e-01 +3.750890e-01
1.670000e+09 +8.491953e-01 +3.778913e-01 -1.949177e-02 +4.141153e-03 -1.949177e-02 +4.141153e-03 +8.491953e-01 +3.778913e-01
1.675000e+09 +8.475581e-01 +3.807214e-01 -1.980682e-02 +4.244319e-03 -1.980682e-02 +4.244319e-03 +8.475581e-01 +3.807214e-01
1.680000e+09 +8.458880e-01 +3.835796e-01 -2.012817e-02 +4.350499e-03 -2.012817e-02 +4.350499e-03 +8.458880e-01 +3.835796e-01
1.685000e+09 +8.441839e-01 +3.864664e-01 -2.045598e-02 +4.459797e-03 -2.045598e-02 +4.459797e-03 +8.441839e-01 +3.864664e-01
1.690000e+09 +8.424452e-01 +3.893820e-01 -2.079042e-02 +4.572324e-03 -2.079042e-02 +4.572324e-03 +8.424452e-01 +3.893820e-01
1.695000e+09 +8.406708e-01 +3.923268e-01 -2.113166e-02 +4.688193e-03 -2.113166e-02 +4.688193e-03 +8.406708e-01 +3.923268e-01
1.700000e+09 +8.388598e-01 +3.953013e-01 -2.147986e-02 +4.807523e-03 -2.147986e-02 +4.807523e-03 +8.388598e-01 +3.953013e-01
1.705000e+09 +8.370113e-01 +3.983059e-01 -2.183523e-02 +4.930438e-03 -2.183523e-02 +4.930438e-03 +8.370113e-01 +3.983059e-01
1.710000e+09 +8.351242e-01 +4.013408e-01 -2.219793e-02 +5.057066e-03 -2.219793e-02 +5.057066e-03 +8.351242e-01 +4.013408e-01
1.715000e+09 +8.331976e-01 +4.044065e-01 -2.256817e-02 +5.187542e-03 -2.256817e-02 +5.187542e-03 +8.331976e-01 +4.044065e-01
1.720000e+09 +8.312303e-01 +4.075034e-01 -2.294614e-02 +5.322006e-03 -2.294614e-02 +5.322006e-03 +8.312303e-01 +4.075034e-01
1.725000e+09 +8.292213e-01 +4.106319e-01 -2.333205e-02 +5.460605e-03 -2.333205e-02 +5.460605e-03 +8.292213e-01 +4.106319e-01
1.730000e+09 +8.271694e-01 +4.137923e-01 -2.372611e-02 +5.603490e-03 -2.372611e-02 +5.603490e-03 +8.271694e-01 +4.137923e-01
1.735000e+09 +8.250735e-01 +4.169850e-01 -2.412855e-02 +5.750821e-03 -2.412855e-02 +5.750821e-03 +8.250735e-01 +4.169850e-01
1.740000e+09 +8.229324e-01 +4.202105e-01 -2.453958e-02 +5.902764e-03 -2.453958e-02 +5.902764e-03 +8.229324e-01 +4.202105e-01
1.745000e+09 +8.207448e-01 +4.234692e-01 -2.495944e-02 +6.059493e-03 -2.495944e-02 +6.059493e-03 +8.207448e-01 +4.234692e-01
1.750000e+09 +8.185094e-01 +4.267614e-01 -2.538837e-02 +6.221188e-03 -2.538837e-02 +6.221188e-03 +8.185094e-01 +4.267614e-01
1.755000e+09 +8.162249e-01 +4.300875e-01 -2.582663e-02 +6.388040e-03 -2.582663e-02 +6.388040e-03 +8.162249e-01 +4.300875e-01
1.760000e+09 +8.138899e-01 +4.334479e-01 -2.627446e-02 +6.560245e-03 -2.627446e-02 +6.560245e-03 +8.138899e-01 +4.334479e-01
1.765000e+09 +8.115030e-01 +4.368430e-01 -2.673214e-02 +6.738011e-03 -2.673214e-02 +6.738011e-03 +8.115030e-01 +4.368430e-01
1.770000e+09 +8.090627e-01 +4.402732e-01 -2.719994e-02 +6.921553e-03 -2.719994e-02 +6.921553e-03 +8.090627e-01 +4.402732e-01
1.775000e+09 +8.065675e-01 +4.437389e-01 -2.767814e-02 +7.111099e-03 -2.767814e-02 +7.111099e-03 +8.065675e-01 +4.437389e-01
1.780000e+09 +8.040157e-01 +4.472404e-01 -2.816705e-02 +7.306884e-03 -2.816705e-02 +7.306884e-03 +8.040157e-01 +4.472404e-01
1.785000e+09 +8.014059e-01 +4.507782e-01 -2.866695e-02 +7.509156e-03 -2.866695e-02 +7.509156e-03 +8.014059e-01 +4.507782e-01
1.790000e+09 +7.987362e-01 +4.543526e-01 -2.917817e-02 +7.718175e-03 -2.917817e-02 +7.718175e-03 +7.987362e-01 +4.543526e-01
1.795000e+09 +7.960049e-01 +4.579640e-01 -2.970104e-02 +7.934213e-03 -2.970104e-02 +7.934213e-03 +7.960049e-01 +4.579640e-01
1.800000e+09 +7.932102e-01 +4.616126e-01 -3.023588e-02 +8.157553e-03 -3.023588e-02 +8.157553e-03 +7.932102e-01 +4.616126e-01
1.805000e+09 +7.903502e-01 +4.652990e-01 -3.078305e-02 +8.388495e-03 -3.078305e-02 +8.388495e-03 +7.903502e-01 +4.652990e-01
1.810000e+09 +7.874230e-01 +4.690234e-01 -3.134290e-02 +8.627350e-03 -3.134290e-02 +8.627350e-03 +7.874230e-01 +4.690234e-01
1.815000e+09 +7.844265e-01 +4.727861e-01 -3.191582e-02 +8.874447e-03 -3.191582e-02 +8.874447e-03 +7.844265e-01 +4.727861e-01
1.820000e+09 +7.813587e-01 +4.765875e-01 -3.250218e-02 +9.130129e-03 -3.250218e-02 +9.130129e-03 +7.813587e-01 +4.765875e-01
1.825000e+09 +7.782175e-01 +4.804278e-01 -3.310238e-02 +9.394758e-03 -3.310238e-02 +9.394758e-03 +7.782175e-01 +4.804278e-01
1.830000e+09 +7.750004e-01 +4.843074e-01 -3.371684e-02 +9.668713e-03 -3.371684e-02 +9.668713e-03 +7.750004e-01 +4.843074e-01
1.835000e+09 +7.717053e-01 +4.882264e-01 -3.434598e-02 +9.952391e-03 -3.434598e-02 +9.952391e-03 +7.717053e-01 +4.882264e-01
1.840000e+09 +7.683296e-01 +4.921852e-01 -3.499026e-02 +1.024621e-02 -3.499026e-02 +1.024621e-02 +7.683296e-01 +4.921852e-01
1.845000e+09 +7.648710e-01 +4.961840e-01 -3.565012e-02 +1.055061e-02 -3.565012e-02 +1.055061e-02 +7.648710e-01 +4.961840e-01
1.850000e+09 +7.613268e-01 +5.002229e-01 -3.632604e-02 +1.086605e-02 -3.632604e-02 +1.086605e-02 +7.613268e-01 +5.002229e-01
1.855000e+09 +7.576942e-01 +5.043022e-01 -3.701852e-02 +1.119303e-02 -3.701852e-02 +1.119303e-02 +7.576942e-01 +5.043022e-01
1.860000e+09 +7.539706e-01 +5.084220e-01 -3.772806e-02 +1.153204e-02 -3.772806e-02 +1.153204e-02 +7.539706e-01 +5.084220e-01
1.865000e+09 +7.501530e-01 +5.125823e-01 -3.845520e-02 +1.188363e-02 -3.845520e-02 +1.188363e-02 +7.501530e-01 +5.125823e-01
1.870000e+09 +7.462383e-01 +5.167833e-01 -3.920048e-02 +1.224836e-02 -3.920048e-02 +1.224836e-02 +7.462383e-01 +5.167833e-01
1.875000e+09 +7.422235e-01 +5.210249e-01 -3.996448e-02 +1.262684e-02 -3.996448e-02 +1.262684e-02 +7.422235e-01 +5.210249e-01
1.880000e+09 +7.381053e-01 +5.253073e-01 -4.074777e-02 +1.301969e-02 -4.074777e-02 +1.301969e-02 +7.381053e-01 +5.253073e-01
1.885000e+09 +7.338803e-01 +5.296302e-01 -4.155097e-02 +1.342757e-02 -4.155097e-02 +1.342757e-02 +7.338803e-01 +5.296302e-01
1.890000e+09 +7.295450e-01 +5.339936e-01 -4.237471e-02 +1.385118e-02 -4.237471e-02 +1.385118e-02 +7.295450e-01 +5.339936e-01
1.895000e+09 +7.250958e-01 +5.383973e-01 -4.321965e-02 +1.429127e-02 -4.321965e-02 +1.429127e-02 +7.250958e-01 +5.383973e-01
1.900000e+09 +7.205289e-01 +5.428411e-01 -4.408647e-02 +1.474860e-02 -4.408647e-02 +1.474860e-02 +7.205289e-01 +5.428411e-01
1.905000e+09 +7.158403e-01 +5.473246e-01 -4.497587e-02 +1.522401e-02 -4.497587e-02 +1.522401e-02 +7.158403e-01 +5.473246e-01
1.910000e+09 +7.110259e-01 +5.518475e-01 -4.588858e-02 +1.571836e-02 -4.588858e-02 +1.571836e-02 +7.110259e-01 +5.518475e-01
1.915000e+09 +7.060816e-01 +5.564092e-01 -4.682536e-02 +1.623257e-02 -4.682536e-02 +1.623257e-02 +7.060816e-01 +5.564092e-01
1.920000e+09 +7.010028e-01 +5.610093e-01 -4.778700e-02 +1.676761e-02 -4.778700e-02 +1.676761e-02 +7.010028e-01 +5.610093e-01
1.925000e+09 +6.957850e-01 +5.656471e-01 -4.877431e-02 +1.732451e-02 -4.877431e-02 +1.732451e-02 +6.957850e-01 +5.656471e-01
1.930000e+09 +6.904234e-01 +5.703218e-01 -4.978813e-02 +1.790436e-02 -4.978813e-02 +1.790436e-02 +6.904234e-01 +5.703218e-01
1.935000e+09 +6.849130e-01 +5.750325e-01 -5.082934e-02 +1.850831e-02 -5.082934e-02 +1.850831e-02 +6.849130e-01 +5.750325e-01
1.940000e+09 +6.792487e-01 +5.797781e-01 -5.189884e-02 +1.913758e-02 -5.189884e-02 +1.913758e-02 +6.792487e-01 +5.797781e-01
1.945000e+09 +6.734251e-01 +5.845576e-01 -5.299758e-02 +1.979347e-02 -5.299758e-02 +1.979347e-02 +6.734251e-01 +5.845576e-01
1.950000e+09 +6.674365e-01 +5.893696e-01 -5.412653e-02 +2.047734e-02 -5.412653e-02 +2.047734e-02 +6.674365e-01 +5.893696e-01
1.955000e+09 +6.612772e-01 +5.942127e-01 -5.528669e-02 +2.119066e-02 -5.528669e-02 +2.119066e-02 +6.612772e-01 +5.942127e-01
1.960000e+09 +6.549411e-01 +5.990851e-01 -5.647912e-02 +2.193497e-02 -5.647912e-02 +2.193497e-02 +6.549411e-01 +5.990851e-01
1.965000e+09 +6.484219e-01 +6.039850e-01 -5.770489e-02 +2.271191e-02 -5.770489e-02 +2.271191e-02 +6.484219e-01 +6.039850e-01
1.970000e+09 +6.417131e-01 +6.089104e-01 -5.896512e-02 +2.352322e-02 -5.896512e-02 +2.352322e-02 +6.417131e-01 +6.089104e-01
1.975000e+09 +6.348079e-01 +6.138589e-01 -6.026097e-02 +2.437077e-02 -6.026097e-02 +2.437077e-02 +6.348079e-01 +6.138589e-01
1.980000e+09 +6.276991e-01 +6.188280e-01 -6.159364e-02 +2.525653e-02 -6.159364e-02 +2.525653e-02 +6.276991e-01 +6.188280e-01
1.985000e+09 +6.203794e-01 +6.238147e-01 -6.296436e-02 +2.618259e-02 -6.296436e-02 +2.618259e-02 +6.203794e-01 +6.238147e-01
1.990000e+09 +6.128411e-01 +6.288161e-01 -6.437441e-02 +2.715120e-02 -6.437441e-02 +2.715120e-02 +6.128411e-01 +6.288161e-01
1.995000e+09 +6.050763e-01 +6.338285e-01 -6.582511e-02 +2.816473e-02 -6.582511e-02 +2.816473e-02 +6.050763e-01 +6.338285e-01
2.000000e+09 +5.970768e-01 +6.388481e-01 -6.731783e-02 +2.922574e-02 -6.731783e-02 +2.922574e-02 +5.970768e-01 +6.388481e-01
2.005000e+09 +5.888338e-01 +6.438708e-01 -6.885396e-02 +3.033693e-02 -6.885396e-02 +3.033693e-02 +5.888338e-01 +6.438708e-01
2.010000e+09 +5.803385e-01 +6.488918e-01 -7.043495e-02 +3.150120e-02 -7.043495e-02 +3.150120e-02 +5.803385e-01 +6.488918e-01
2.015000e+09 +5.715816e-01 +6.539060e-01 -7.206228e-02 +3.272164e-02 -7.206228e-02 +3.272164e-02 +5.715816e-01 +6.539060e-01
2.020000e+09 +5.625535e-01 +6.589077e-01 -7.373747e-02 +3.400156e-02 -7.373747e-02 +3.400156e-02 +5.625535e-01 +6.589077e-01
2.025000e+09 +5.532442e-01 +6.638908e-01 -7.546209e-02 +3.534448e-02 -7.546209e-02 +3.534448e-02 +5.532442e-01 +6.638908e-01
2.030000e+09 +5.436433e-01 +6.688485e-01 -7.723772e-02 +3.675418e-02 -7.723772e-02 +3.675418e-02 +5.436433e-01 +6.688485e-01
2.035000e+09 +5.337402e-01 +6.737734e-01 -7.906601e-02 +3.823472e-02 -7.906601e-02 +3.823472e-02 +5.337402e-01 +6.737734e-01
2.040000e+09 +5.235238e-01 +6.786571e-01 -8.094861e-02 +3.979042e-02 -8.094861e-02 +3.979042e-02 +5.235238e-01 +6.786571e-01
2.045000e+09 +5.129825e-01 +6.834909e-01 -8.288720e-02 +4.142593e-02 -8.288720e-02 +4.142593e-02 +5.129825e-01 +6.834909e-01
2.050000e+09 +5.021046e-01 +6.882649e-01 -8.488349e-02 +4.314623e-02 -8.488349e-02 +4.314623e-02 +5.021046e-01 +6.882649e-01
2.055000e+09 +4.908779e-01 +6.929683e-01 -8.693920e-02 +4.495667e-02 -8.693920e-02 +4.495667e-02 +4.908779e-01 +6.929683e-01
2.060000e+09 +4.792898e-01 +6.975895e-01 -8.905605e-02 +4.686297e-02 -8.905605e-02 +4.686297e-02 +4.792898e-01 +6.975895e-01
2.065000e+09 +4.673273e-01 +7.021156e-01 -9.123577e-02 +4.887131e-02 -9.123577e-02 +4.887131e-02 +4.673273e-01 +7.021156e-01
2.070000e+09 +4.549773e-01 +7.065325e-01 -9.348004e-02 +5.098831e-02 -9.348004e-02 +5.098831e-02 +4.549773e-01 +7.065325e-01
2.075000e+09 +4.422262e-01 +7.108250e-01 -9.579055e-02 +5.322110e-02 -9.579055e-02 +5.322110e-02 +4.422262e-01 +7.108250e-01
2.080000e+09 +4.290601e-01 +7.149762e-01 -9.816892e-02 +5.557734e-02 -9.816892e-02 +5.557734e-02 +4.290601e-01 +7.149762e-01
2.085000e+09 +4.154650e-01 +7.189678e-01 -1.006167e-01 +5.806528e-02 -1.006167e-01 +5.806528e-02 +4.154650e-01 +7.189678e-01
2.090000e+09 +4.014267e-01 +7.227799e-01 -1.031353e-01 +6.069382e-02 -1.031353e-01 +6.069382e-02 +4.014267e-01 +7.227799e-01
2.095000e+09 +3.869307e-01 +7.263905e-01 -1.057262e-01 +6.347254e-02 -1.057262e-01 +6.347254e-02 +3.869307e-01 +7.263905e-01
2.100000e+09 +3.719626e-01 +7.297759e-01 -1.083905e-01 +6.641178e-02 -1.083905e-01 +6.641178e-02 +3.719626e-01 +7.297759e-01
2.105000e+09 +3.565080e-01 +7.329101e-01 -1.111291e-01 +6.952267e-02 -1.111291e-01 +6.952267e-02 +3.565080e-01 +7.329101e-01
2.110000e+09 +3.405528e-01 +7.357648e-01 -1.139429e-01 +7.281725e-02 -1.139429e-01 +7.281725e-02 +3.405528e-01 +7.357648e-01
2.115000e+09 +3.240831e-01 +7.383090e-01 -1.168323e-01 +7.630850e-02 -1.168323e-01 +7.630850e-02 +3.240831e-01 +7.383090e-01
2.120000e+09 +3.070853e-01 +7.405091e-01 -1.197973e-01 +8.001043e-02 -1.197973e-01 +8.001043e-02 +3.070853e-01 +7.405091e-01
2.125000e+09 +2.895469e-01 +7.423286e-01 -1.228377e-01 +8.393820e-02 -1.228377e-01 +8.393820e-02 +2.895469e-01 +7.423286e-01
2.130000e+09 +2.714558e-01 +7.437276e-01 -1.259526e-01 +8.810817e-02 -1.259526e-01 +8.810817e-02 +2.714558e-01 +7.437276e-01
2.135000e+09 +2.528015e-01 +7.446628e-01 -1.291403e-01 +9.253800e-02 -1.291403e-01 +9.253800e-02 +2.528015e-01 +7.446628e-01
2.140000e+09 +2.335748e-01 +7.450872e-01 -1.323988e-01 +9.724679e-02 -1.323988e-01 +9.724679e-02 +2.335748e-01 +7.450872e-01
2.145000e+09 +2.137685e-01 +7.449499e-01 -1.357248e-01 +1.022552e-01 -1.357248e-01 +1.022552e-01 +2.137685e-01 +7.449499e-01
2.150000e+09 +1.933777e-01 +7.441957e-01 -1.391141e-01 +1.075854e-01 -1.391141e-01 +1.075854e-01 +1.933777e-01 +7.441957e-01
2.155000e+09 +1.724004e-01 +7.427650e-01 -1.425612e-01 +1.132616e-01 -1.425612e-01 +1.132616e-01 +1.724004e-01 +7.427650e-01
2.160000e+09 +1.508381e-01 +7.405933e-01 -1.460592e-01 +1.193097e-01 -1.460592e-01 +1.193097e-01 +1.508381e-01 +7.405933e-01
2.165000e+09 +1.286966e-01 +7.376113e-01 -1.495993e-01 +1.257576e-01 -1.495993e-01 +1.257576e-01 +1.286966e-01 +7.376113e-01
2.170000e+09 +1.059866e-01 +7.337445e-01 -1.531707e-01 +1.326354e-01 -1.531707e-01 +1.326354e-01 +1.059866e-01 +7.337445e-01
2.175000e+09 +8.272513e-02 +7.289133e-01 -1.567602e-01 +1.399756e-01 -1.567602e-01 +1.399756e-01 +8.272513e-02 +7.289133e-01
2.180000e+09 +5.893597e-02 +7.230325e-01 -1.603518e-01 +1.478130e-01 -1.603518e-01 +1.478130e-01 +5.893597e-02 +7.230325e-01
2.185000e+09 +3.465146e-02 +7.160119e-01 -1.639260e-01 +1.561846e-01 -1.639260e-01 +1.561846e-01 +3.465146e-02 +7.160119e-01
2.190000e+09 +9.913675e-03 +7.077560e-01 -1.674597e-01 +1.651304e-01 -1.674597e-01 +1.651304e-01 +9.913675e-03 +7.077560e-01
2.195000e+09 -1.522396e-02 +6.981647e-01 -1.709249e-01 +1.746927e-01 -1.709249e-01 +1.746927e-01 -1.522396e-02 +6.981647e-01
2.200000e+09 -4.069489e-02 +6.871338e-01 -1.742888e-01 +1.849163e-01 -1.742888e-01 +1.849163e-01 -4.069489e-02 +6.871338e-01
2.205000e+09 -6.641745e-02 +6.745557e-01 -1.775120e-01 +1.958484e-01 -1.775120e-01 +1.958484e-01 -6.641745e-02 +6.745557e-01
2.210000e+09 -9.229280e-02 +6.603210e-01 -1.805485e-01 +2.075387e-01 -1.805485e-01 +2.075387e-01 -9.229280e-02 +6.603210e-01
2.215000e+09 -1.182026e-01 +6.443200e-01 -1.833439e-01 +2.200386e-01 -1.833439e-01 +2.200386e-01 -1.182026e-01 +6.443200e-01
2.220000e+09 -1.440068e-01 +6.264449e-01 -1.858344e-01 +2.334009e-01 -1.858344e-01 +2.334009e-01 -1.440068e-01 +6.264449e-01
2.225000e+09 -1.695409e-01 +6.065930e-01 -1.879458e-01 +2.476791e-01 -1.879458e-01 +2.476791e-01 -1.695409e-01 +6.065930e-01
2.230000e+09 -1.946141e-01 +5.846705e-01 -1.895916e-01 +2.629265e-01 -1.895916e-01 +2.629265e-01 -1.946141e-01 +5.846705e-01
2.235000e+09 -2.190070e-01 +5.605965e-01 -1.906717e-01 +2.791948e-01 -1.906717e-01 +2.791948e-01 -2.190070e-01 +5.605965e-01
2.240000e+09 -2.424700e-01 +5.343098e-01 -1.910706e-01 +2.965323e-01 -1.910706e-01 +2.965323e-01 -2.424700e-01 +5.343098e-01
2.245000e+09 -2.647224e-01 +5.057746e-01 -1.906563e-01 +3.149819e-01 -1.906563e-01 +3.149819e-01 -2.647224e-01 +5.057746e-01
2.250000e+09 -2.854531e-01 +4.749894e-01 -1.892779e-01 +3.345781e-01 -1.892779e-01 +3.345781e-01 -2.854531e-01 +4.749894e-01
2.255000e+09 -3.043216e-01 +4.419956e-01 -1.867649e-01 +3.553435e-01 -1.867649e-01 +3.553435e-01 -3.043216e-01 +4.419956e-01
2.260000e+09 -3.209629e-01 +4.068880e-01 -1.829262e-01 +3.772848e-01 -1.829262e-01 +3.772848e-01 -3.209629e-01 +4.068880e-01
2.265000e+09 -3.349932e-01 +3.698251e-01 -1.775494e-01 +4.003872e-01 -1.775494e-01 +4.003872e-01 -3.349932e-01 +3.698251e-01
2.270000e+09 -3.460207e-01 +3.310407e-01 -1.704015e-01 +4.246092e-01 -1.704015e-01 +4.246092e-01 -3.460207e-01 +3.310407e-01
2.275000e+09 -3.536591e-01 +2.908533e-01 -1.612304e-01 +4.498751e-01 -1.612304e-01 +4.498751e-01 -3.536591e-01 +2.908533e-01
2.280000e+09 -3.575456e-01 +2.496743e-01 -1.497686e-01 +4.760680e-01 -1.497686e-01 +4.760680e-01 -3.575456e-01 +2.496743e-01
2.285000e+09 -3.573644e-01 +2.080131e-01 -1.357381e-01 +5.030218e-01 -1.357381e-01 +5.030218e-01 -3.573644e-01 +2.080131e-01
2.290000e+09 -3.528729e-01 +1.664750e-01 -1.188588e-01 +5.305139e-01 -1.188588e-01 +5.305139e-01 -3.528729e-01 +1.664750e-01
2.295000e+09 -3.439318e-01 +1.257535e-01 -9.885886e-02 +5.582580e-01 -9.885886e-02 +5.582580e-01 -3.439318e-01 +1.257535e-01
2.300000e+09 -3.305356e-01 +8.661186e-02 -7.548867e-02 +5.858989e-01 -7.548867e-02 +5.858989e-01 -3.305356e-01 +8.661186e-02
2.305000e+09 -3.128410e-01 +4.985343e-02 -4.853759e-02 +6.130109e-01 -4.853759e-02 +6.130109e-01 -3.128410e-01 +4.985343e-02
2.310000e+09 -2.911886e-01 +1.628130e-02 -1.785311e-02 +6.390991e-01 -1.785311e-02 +6.390991e-01 -2.911886e-01 +1.628130e-02
2.315000e+09 -2.661134e-01 -1.335289e-02 +1.663861e-02 +6.636076e-01 +1.663861e-02 +6.636076e-01 -2.661134e-01 -1.335289e-02
2.320000e+09 -2.383392e-01 -3.840673e-02 +5.491252e-02 +6.859332e-01 +5.491252e-02 +6.859332e-01 -2.383392e-01 -3.840673e-02
2.325000e+09 -2.087533e-01 -5.840582e-02 +9.682708e-02 +7.054461e-01 +9.682708e-02 +7.054461e-01 -2.087533e-01 -5.840582e-02
2.330000e+09 -1.783593e-01 -7.309574e-02 +1.421118e-01 +7.215182e-01 +1.421118e-01 +7.215182e-01 -1.783593e-01 -7.309574e-02
2.335000e+09 -1.482120e-01 -8.247852e-02 +1.903627e-01 +7.335551e-01 +1.903627e-01 +7.335551e-01 -1.482120e-01 -8.247852e-02
2.340000e+09 -1.193386e-01 -8.682571e-02 +2.410477e-01 +7.410313e-01 +2.410477e-01 +7.410313e-01 -1.193386e-01 -8.682571e-02
2.345000e+09 -9.265728e-02 -8.666304e-02 +2.935228e-01 +7.435245e-01 +2.935228e-01 +7.435245e-01 -9.265728e-02 -8.666304e-02
2.350000e+09 -6.890324e-02 -8.272621e-02 +3.470596e-01 +7.407439e-01 +3.470596e-01 +7.407439e-01 -6.890324e-02 -8.272621e-02
2.355000e+09 -4.857578e-02 -7.589283e-02 +4.008802e-01 +7.325502e-01 +4.008802e-01 +7.325502e-01 -4.857578e-02 -7.589283e-02
2.360000e+09 -3.191239e-02 -6.710010e-02 +4.541984e-01 +7.189635e-01 +4.541984e-01 +7.189635e-01 -3.191239e-02 -6.710010e-02
2.365000e+09 -1.889422e-02 -5.726065e-02 +5.062602e-01 +7.001589e-01 +5.062602e-01 +7.001589e-01 -1.889422e-02 -5.726065e-02
2.370000e+09 -9.279714e-03 -4.718894e-02 +5.563810e-01 +6.764493e-01 +5.563810e-01 +6.764493e-01 -9.279714e-03 -4.718894e-02
2.375000e+09 -2.659023e-03 -3.754752e-02 +6.039747e-01 +6.482593e-01 +6.039747e-01 +6.482593e-01 -2.659023e-03 -3.754752e-02
2.380000e+09 +1.481267e-03 -2.881825e-02 +6.485730e-01 +6.160923e-01 +6.485730e-01 +6.160923e-01 +1.481267e-03 -2.881825e-02
2.385000e+09 +3.693608e-03 -2.129816e-02 +6.898330e-01 +5.804963e-01 +6.898330e-01 +5.804963e-01 +3.693608e-03 -2.129816e-02
2.390000e+09 +4.513768e-03 -1.511602e-02 +7.275353e-01 +5.420308e-01 +7.275353e-01 +5.420308e-01 +4.513768e-03 -1.511602e-02
2.395000e+09 +4.419271e-03 -1.026278e-02 +7.615734e-01 +5.012381e-01 +7.615734e-01 +5.012381e-01 +4.419271e-03 -1.026278e-02
2.400000e+09 +3.803873e-03 -6.628898e-03 +7.919372e-01 +4.586215e-01 +7.919372e-01 +4.586215e-01 +3.803873e-03 -6.628898e-03
2.405000e+09 +2.967122e-03 -4.042214e-03 +8.186937e-01 +4.146292e-01 +8.186937e-01 +4.146292e-01 +2.967122e-03 -4.042214e-03
2.410000e+09 +2.116146e-03 -2.301739e-03 +8.419659e-01 +3.696458e-01 +8.419659e-01 +3.696458e-01 +2.116146e-03 -2.301739e-03
2.415000e+09 +1.376061e-03 -1.204733e-03 +8.619137e-01 +3.239888e-01 +8.619137e-01 +3.239888e-01 +1.376061e-03 -1.204733e-03
2.420000e+09 +8.053873e-04 -5.660577e-04 +8.787155e-01 +2.779101e-01 +8.787155e-01 +2.779101e-01 +8.053873e-04 -5.660577e-04
2.425000e+09 +4.134562e-04 -2.300582e-04 +8.925533e-01 +2.316009e-01 +8.925533e-01 +2.316009e-01 +4.134562e-04 -2.300582e-04
2.430000e+09 +1.775199e-04 -7.595832e-05 +9.036004e-01 +1.851983e-01 +9.036004e-01 +1.851983e-01 +1.775199e-04 -7.595832e-05
2.435000e+09 +5.810040e-05 -1.810325e-05 +9.120116e-01 +1.387942e-01 +9.120116e-01 +1.387942e-01 +5.810040e-05 -1.810325e-05
2.440000e+09 +1.173198e-05 -2.387282e-06 +9.179165e-01 +9.244386e-02 +9.179165e-01 +9.244386e-02 +1.173198e-05 -2.387282e-06
2.445000e+09 +7.414931e-07 -7.450532e-08 +9.214144e-01 +4.617567e-02 +9.214144e-01 +4.617567e-02 +7.414931e-07 -7.450532e-08
2.450000e+09 +0.000000e+00 +0.000000e+00 +9.225714e-01 +0.000000e+00 +9.225714e-01 +0.000000e+00 +0.000000e+00 +0.000000e+00
2.455000e+09 +7.354798e-07 +7.374931e-08 +9.214191e-01 -4.608153e-02 +9.214191e-01 -4.608153e-02 +7.354798e-07 +7.374931e-08
2.460000e+09 +1.154392e-05 +2.339153e-06 +9.179545e-01 -9.206735e-02 +9.179545e-01 -9.206735e-02 +1.154392e-05 +2.339153e-06
2.465000e+09 +5.672762e-05 +1.756000e-05 +9.121415e-01 -1.379474e-01 +9.121415e-01 -1.379474e-01 +5.672762e-05 +1.756000e-05
2.470000e+09 +1.720623e-04 +7.294625e-05 +9.039134e-01 -1.836950e-01 +9.039134e-01 -1.836950e-01 +1.720623e-04 +7.294625e-05
2.475000e+09 +3.980866e-04 +2.187735e-04 +8.931768e-01 -2.292586e-01 +8.931768e-01 -2.292586e-01 +3.980866e-04 +2.187735e-04
2.480000e+09 +7.710521e-04 +5.331452e-04 +8.798175e-01 -2.745548e-01 +8.798175e-01 -2.745548e-01 +7.710521e-04 +5.331452e-04
2.485000e+09 +1.311794e-03 +1.124186e-03 +8.637071e-01 -3.194610e-01 +8.637071e-01 -3.194610e-01 +1.311794e-03 +1.124186e-03
2.490000e+09 +2.013008e-03 +2.128862e-03 +8.447120e-01 -3.638100e-01 +8.447120e-01 -3.638100e-01 +2.013008e-03 +2.128862e-03
2.495000e+09 +2.825739e-03 +3.707600e-03 +8.227044e-01 -4.073855e-01 +8.227044e-01 -4.073855e-01 +2.825739e-03 +3.707600e-03
2.500000e+09 +3.646318e-03 +6.033996e-03 +7.975739e-01 -4.499199e-01 +7.975739e-01 -4.499199e-01 +3.646318e-03 +6.033996e-03
2.505000e+09 +4.305405e-03 +9.279203e-03 +7.692419e-01 -4.910946e-01 +7.692419e-01 -4.910946e-01 +4.305405e-03 +9.279203e-03
2.510000e+09 +4.561222e-03 +1.359118e-02 +7.376761e-01 -5.305444e-01 +7.376761e-01 -5.305444e-01 +4.561222e-03 +1.359118e-02
2.515000e+09 +4.099225e-03 +1.906976e-02 +7.029047e-01 -5.678651e-01 +7.029047e-01 -5.678651e-01 +4.099225e-03 +1.906976e-02
2.520000e+09 +2.540358e-03 +2.573955e-02 +6.650299e-01 -6.026260e-01 +6.650299e-01 -6.026260e-01 +2.540358e-03 +2.573955e-02
2.525000e+09 -5.406333e-04 +3.352373e-02 +6.242385e-01 -6.343867e-01 +6.242385e-01 -6.343867e-01 -5.406333e-04 +3.352373e-02
2.530000e+09 -5.586508e-03 +4.222266e-02 +5.808081e-01 -6.627170e-01 +5.808081e-01 -6.627170e-01 -5.586508e-03 +4.222266e-02
2.535000e+09 -1.301981e-02 +5.150160e-02 +5.351080e-01 -6.872200e-01 +5.351080e-01 -6.872200e-01 -1.301981e-02 +5.150160e-02
2.540000e+09 -2.319941e-02 +6.089127e-02 +4.875933e-01 -7.075557e-01 +4.875933e-01 -7.075557e-01 -2.319941e-02 +6.089127e-02
2.545000e+09 -3.637623e-02 +6.980386e-02 +4.387924e-01 -7.234627e-01 +4.387924e-01 -7.234627e-01 -3.637623e-02 +6.980386e-02
2.550000e+09 -5.265430e-02 +7.756473e-02 +3.892876e-01 -7.347768e-01 +3.892876e-01 -7.347768e-01 -5.265430e-02 +7.756473e-02
2.555000e+09 -7.196318e-02 +8.345738e-02 +3.396913e-01 -7.414434e-01 +3.396913e-01 -7.414434e-01 -7.196318e-02 +8.345738e-02
2.560000e+09 -9.404647e-02 +8.677694e-02 +2.906187e-01 -7.435225e-01 +2.906187e-01 -7.435225e-01 -9.404647e-02 +8.677694e-02
2.565000e+09 -1.184690e-01 +8.688543e-02 +2.426609e-01 -7.411862e-01 +2.426609e-01 -7.411862e-01 -1.184690e-01 +8.688543e-02
2.570000e+09 -1.446421e-01 +8.326179e-02 +1.963592e-01 -7.347082e-01 +1.963592e-01 -7.347082e-01 -1.446421e-01 +8.326179e-02
2.575000e+09 -1.718634e-01 +7.554040e-02 +1.521849e-01 -7.244472e-01 +1.521849e-01 -7.244472e-01 -1.718634e-01 +7.554040e-02
2.580000e+09 -1.993663e-01 +6.353392e-02 +1.105246e-01 -7.108265e-01 +1.105246e-01 -7.108265e-01 -1.993663e-01 +6.353392e-02
2.585000e+09 -2.263714e-01 +4.723884e-02 +7.167194e-02 -6.943109e-01 +7.167194e-02 -6.943109e-01 -2.263714e-01 +4.723884e-02
2.590000e+09 -2.521356e-01 +2.682500e-02 +3.582636e-02 -6.753841e-01 +3.582636e-02 -6.753841e-01 -2.521356e-01 +2.682500e-02
2.595000e+09 -2.759922e-01 +2.612091e-03 +3.097278e-03 -6.545283e-01 +3.097278e-03 -6.545283e-01 -2.759922e-01 +2.612091e-03
2.600000e+09 -2.973806e-01 -2.496237e-02 -2.648740e-02 -6.322066e-01 -2.648740e-02 -6.322066e-01 -2.973806e-01 -2.496237e-02
2.605000e+09 -3.158627e-01 -5.537908e-02 -5.296974e-02 -6.088497e-01 -5.296974e-02 -6.088497e-01 -3.158627e-01 -5.537908e-02
2.610000e+09 -3.311297e-01 -8.807281e-02 -7.644887e-02 -5.848467e-01 -7.644887e-02 -5.848467e-01 -3.311297e-01 -8.807281e-02
2.615000e+09 -3.429975e-01 -1.224650e-01 -9.706774e-02 -5.605398e-01 -9.706774e-02 -5.605398e-01 -3.429975e-01 -1.224650e-01
2.620000e+09 -3.513965e-01 -1.579910e-01 -1.150006e-01 -5.362222e-01 -1.150006e-01 -5.362222e-01 -3.513965e-01 -1.579910e-01
2.625000e+09 -3.563555e-01 -1.941208e-01 -1.304419e-01 -5.121388e-01 -1.304419e-01 -5.121388e-01 -3.563555e-01 -1.941208e-01
2.630000e+09 -3.579841e-01 -2.303740e-01 -1.435966e-01 -4.884887e-01 -1.435966e-01 -4.884887e-01 -3.579841e-01 -2.303740e-01
2.635000e+09 -3.564548e-01 -2.663285e-01 -1.546725e-01 -4.654292e-01 -1.546725e-01 -4.654292e-01 -3.564548e-01 -2.663285e-01
2.640000e+09 -3.519850e-01 -3.016243e-01 -1.638741e-01 -4.430799e-01 -1.638741e-01 -4.430799e-01 -3.519850e-01 -3.016243e-01
2.645000e+09 -3.448222e-01 -3.359636e-01 -1.713984e-01 -4.215283e-01 -1.713984e-01 -4.215283e-01 -3.448222e-01 -3.359636e-01
2.650000e+09 -3.352303e-01 -3.691084e-01 -1.774317e-01 -4.008341e-01 -1.774317e-01 -4.008341e-01 -3.352303e-01 -3.691084e-01
2.655000e+09 -3.234790e-01 -4.008756e-01 -1.821475e-01 -3.810339e-01 -1.821475e-01 -3.810339e-01 -3.234790e-01 -4.008756e-01
2.660000e+09 -3.098353e-01 -4.311312e-01 -1.857056e-01 -3.621455e-01 -1.857056e-01 -3.621455e-01 -3.098353e-01 -4.311312e-01
2.665000e+09 -2.945569e-01 -4.597845e-01 -1.882516e-01 -3.441715e-01 -1.882516e-01 -3.441715e-01 -2.945569e-01 -4.597845e-01
2.670000e+09 -2.778880e-01 -4.867814e-01 -1.899174e-01 -3.271026e-01 -1.899174e-01 -3.271026e-01 -2.778880e-01 -4.867814e-01
2.675000e+09 -2.600565e-01 -5.120987e-01 -1.908212e-01 -3.109204e-01 -1.908212e-01 -3.109204e-01 -2.600565e-01 -5.120987e-01
2.680000e+09 -2.412717e-01 -5.357384e-01 -1.910687e-01 -2.955994e-01 -1.910687e-01 -2.955994e-01 -2.412717e-01 -5.357384e-01
2.685000e+09 -2.217240e-01 -5.577228e-01 -1.907536e-01 -2.811095e-01 -1.907536e-01 -2.811095e-01 -2.217240e-01 -5.577228e-01
2.690000e+09 -2.015850e-01 -5.780900e-01 -1.899588e-01 -2.674171e-01 -1.899588e-01 -2.674171e-01 -2.015850e-01 -5.780900e-01
2.695000e+09 -1.810074e-01 -5.968902e-01 -1.887573e-01 -2.544864e-01 -1.887573e-01 -2.544864e-01 -1.810074e-01 -5.968902e-01
2.700000e+09 -1.601268e-01 -6.141823e-01 -1.872132e-01 -2.422807e-01 -1.872132e-01 -2.422807e-01 -1.601268e-01 -6.141823e-01
2.705000e+09 -1.390618e-01 -6.300315e-01 -1.853826e-01 -2.307627e-01 -1.853826e-01 -2.307627e-01 -1.390618e-01 -6.300315e-01
2.710000e+09 -1.179161e-01 -6.445072e-01 -1.833145e-01 -2.198956e-01 -1.833145e-01 -2.198956e-01 -1.179161e-01 -6.445072e-01
2.715000e+09 -9.677927e-02 -6.576805e-01 -1.810513e-01 -2.096432e-01 -1.810513e-01 -2.096432e-01 -9.677927e-02 -6.576805e-01
2.720000e+09 -7.572832e-02 -6.696237e-01 -1.786302e-01 -1.999704e-01 -1.786302e-01 -1.999704e-01 -7.572832e-02 -6.696237e-01
2.725000e+09 -5.482886e-02 -6.804085e-01 -1.760832e-01 -1.908432e-01 -1.760832e-01 -1.908432e-01 -5.482886e-02 -6.804085e-01
2.730000e+09 -3.413635e-02 -6.901054e-01 -1.734380e-01 -1.822292e-01 -1.734380e-01 -1.822292e-01 -3.413635e-02 -6.901054e-01
2.735000e+09 -1.369725e-02 -6.987831e-01 -1.707184e-01 -1.740975e-01 -1.707184e-01 -1.740975e-01 -1.369725e-02 -6.987831e-01
2.740000e+09 +6.449953e-03 -7.065079e-01 -1.679450e-01 -1.664188e-01 -1.679450e-01 -1.664188e-01 +6.449953e-03 -7.065079e-01
2.745000e+09 +2.627377e-02 -7.133434e-01 -1.651355e-01 -1.591652e-01 -1.651355e-01 -1.591652e-01 +2.627377e-02 -7.133434e-01
2.750000e+09 +4.574884e-02 -7.193503e-01 -1.623049e-01 -1.523106e-01 -1.623049e-01 -1.523106e-01 +4.574884e-02 -7.193503e-01
2.755000e+09 +6.485515e-02 -7.245864e-01 -1.594661e-01 -1.458303e-01 -1.594661e-01 -1.458303e-01 +6.485515e-02 -7.245864e-01
2.760000e+09 +8.357731e-02 -7.291061e-01 -1.566300e-01 -1.397012e-01 -1.566300e-01 -1.397012e-01 +8.357731e-02 -7.291061e-01
2.765000e+09 +1.019040e-01 -7.329610e-01 -1.538059e-01 -1.339016e-01 -1.538059e-01 -1.339016e-01 +1.019040e-01 -7.329610e-01
2.770000e+09 +1.198272e-01 -7.361996e-01 -1.510016e-01 -1.284110e-01 -1.510016e-01 -1.284110e-01 +1.198272e-01 -7.361996e-01
2.775000e+09 +1.373421e-01 -7.388672e-01 -1.482235e-01 -1.232104e-01 -1.482235e-01 -1.232104e-01 +1.373421e-01 -7.388672e-01
2.780000e+09 +1.544462e-01 -7.410066e-01 -1.454772e-01 -1.182821e-01 -1.454772e-01 -1.182821e-01 +1.544462e-01 -7.410066e-01
2.785000e+09 +1.711392e-01 -7.426576e-01 -1.427671e-01 -1.136093e-01 -1.427671e-01 -1.136093e-01 +1.711392e-01 -7.426576e-01
2.790000e+09 +1.874227e-01 -7.438574e-01 -1.400969e-01 -1.091765e-01 -1.400969e-01 -1.091765e-01 +1.874227e-01 -7.438574e-01
2.795000e+09 +2.032998e-01 -7.446407e-01 -1.374695e-01 -1.049692e-01 -1.374695e-01 -1.049692e-01 +2.032998e-01 -7.446407e-01
2.800000e+09 +2.187748e-01 -7.450398e-01 -1.348872e-01 -1.009738e-01 -1.348872e-01 -1.009738e-01 +2.187748e-01 -7.450398e-01
2.805000e+09 +2.338531e-01 -7.450850e-01 -1.323519e-01 -9.717759e-02 -1.323519e-01 -9.717759e-02 +2.338531e-01 -7.450850e-01
2.810000e+09 +2.485410e-01 -7.448041e-01 -1.298648e-01 -9.356874e-02 -1.298648e-01 -9.356874e-02 +2.485410e-01 -7.448041e-01
2.815000e+09 +2.628455e-01 -7.442233e-01 -1.274271e-01 -9.013620e-02 -1.274271e-01 -9.013620e-02 +2.628455e-01 -7.442233e-01
2.820000e+09 +2.767740e-01 -7.433666e-01 -1.250392e-01 -8.686964e-02 -1.250392e-01 -8.686964e-02 +2.767740e-01 -7.433666e-01
2.825000e+09 +2.903345e-01 -7.422567e-01 -1.227016e-01 -8.375941e-02 -1.227016e-01 -8.375941e-02 +2.903345e-01 -7.422567e-01
2.830000e+09 +3.035353e-01 -7.409143e-01 -1.204143e-01 -8.079650e-02 -1.204143e-01 -8.079650e-02 +3.035353e-01 -7.409143e-01
2.835000e+09 +3.163850e-01 -7.393588e-01 -1.181773e-01 -7.797248e-02 -1.181773e-01 -7.797248e-02 +3.163850e-01 -7.393588e-01
2.840000e+09 +3.288921e-01 -7.376082e-01 -1.159902e-01 -7.527946e-02 -1.159902e-01 -7.527946e-02 +3.288921e-01 -7.376082e-01
2.845000e+09 +3.410654e-01 -7.356791e-01 -1.138527e-01 -7.271008e-02 -1.138527e-01 -7.271008e-02 +3.410654e-01 -7.356791e-01
2.850000e+09 +3.529137e-01 -7.335869e-01 -1.117642e-01 -7.025744e-02 -1.117642e-01 -7.025744e-02 +3.529137e-01 -7.335869e-01
2.855000e+09 +3.644458e-01 -7.313459e-01 -1.097241e-01 -6.791508e-02 -1.097241e-01 -6.791508e-02 +3.644458e-01 -7.313459e-01
2.860000e+09 +3.756705e-01 -7.289695e-01 -1.077315e-01 -6.567696e-02 -1.077315e-01 -6.567696e-02 +3.756705e-01 -7.289695e-01
2.865000e+09 +3.865964e-01 -7.264699e-01 -1.057858e-01 -6.353741e-02 -1.057858e-01 -6.353741e-02 +3.865964e-01 -7.264699e-01
2.870000e+09 +3.972320e-01 -7.238585e-01 -1.038861e-01 -6.149111e-02 -1.038861e-01 -6.149111e-02 +3.972320e-01 -7.238585e-01
2.875000e+09 +4.075857e-01 -7.211459e-01 -1.020315e-01 -5.953310e-02 -1.020315e-01 -5.953310e-02 +4.075857e-01 -7.211459e-01
2.880000e+09 +4.176659e-01 -7.183418e-01 -1.002210e-01 -5.765870e-02 -1.002210e-01 -5.765870e-02 +4.176659e-01 -7.183418e-01
2.885000e+09 +4.274805e-01 -7.154553e-01 -9.845375e-02 -5.586353e-02 -9.845375e-02 -5.586353e-02 +4.274805e-01 -7.154553e-01
2.890000e+09 +4.370376e-01 -7.124948e-01 -9.672874e-02 -5.414347e-02 -9.672874e-02 -5.414347e-02 +4.370376e-01 -7.124948e-01
2.895000e+09 +4.463449e-01 -7.094680e-01 -9.504501e-02 -5.249464e-02 -9.504501e-02 -5.249464e-02 +4.463449e-01 -7.094680e-01
2.900000e+09 +4.554098e-01 -7.063822e-01 -9.340156e-02 -5.091343e-02 -9.340156e-02 -5.091343e-02 +4.554098e-01 -7.063822e-01
2.905000e+09 +4.642398e-01 -7.032440e-01 -9.179743e-02 -4.939640e-02 -9.179743e-02 -4.939640e-02 +4.642398e-01 -7.032440e-01
2.910000e+09 +4.728420e-01 -7.000596e-01 -9.023163e-02 -4.794034e-02 -9.023163e-02 -4.794034e-02 +4.728420e-01 -7.000596e-01
2.915000e+09 +4.812233e-01 -6.968348e-01 -8.870320e-02 -4.654222e-02 -8.870320e-02 -4.654222e-02 +4.812233e-01 -6.968348e-01
2.920000e+09 +4.893906e-01 -6.935746e-01 -8.721118e-02 -4.519919e-02 -8.721118e-02 -4.519919e-02 +4.893906e-01 -6.935746e-01
2.925000e+09 +4.973503e-01 -6.902842e-01 -8.575463e-02 -4.390857e-02 -8.575463e-02 -4.390857e-02 +4.973503e-01 -6.902842e-01
2.930000e+09 +5.051088e-01 -6.869679e-01 -8.433260e-02 -4.266781e-02 -8.433260e-02 -4.266781e-02 +5.051088e-01 -6.869679e-01
2.935000e+09 +5.126723e-01 -6.836301e-01 -8.294419e-02 -4.147454e-02 -8.294419e-02 -4.147454e-02 +5.126723e-01 -6.836301e-01
2.940000e+09 +5.200467e-01 -6.802744e-01 -8.158850e-02 -4.032648e-02 -8.158850e-02 -4.032648e-02 +5.200467e-01 -6.802744e-01
2.945000e+09 +5.272378e-01 -6.769046e-01 -8.026464e-02 -3.922153e-02 -8.026464e-02 -3.922153e-02 +5.272378e-01 -6.769046e-01
2.950000e+09 +5.342512e-01 -6.735239e-01 -7.897175e-02 -3.815766e-02 -7.897175e-02 -3.815766e-02 +5.342512e-01 -6.735239e-01
2.955000e+09 +5.410924e-01 -6.701353e-01 -7.770899e-02 -3.713298e-02 -7.770899e-02 -3.713298e-02 +5.410924e-01 -6.701353e-01
2.960000e+09 +5.477665e-01 -6.667417e-01 -7.647554e-02 -3.614569e-02 -7.647554e-02 -3.614569e-02 +5.477665e-01 -6.667417e-01
2.965000e+09 +5.542786e-01 -6.633457e-01 -7.527059e-02 -3.519409e-02 -7.527059e-02 -3.519409e-02 +5.542786e-01 -6.633457e-01
2.970000e+09 +5.606337e-01 -6.599497e-01 -7.409336e-02 -3.427657e-02 -7.409336e-02 -3.427657e-02 +5.606337e-01 -6.599497e-01
2.975000e+09 +5.668364e-01 -6.565559e-01 -7.294309e-02 -3.339162e-02 -7.294309e-02 -3.339162e-02 +5.668364e-01 -6.565559e-01
2.980000e+09 +5.728914e-01 -6.531663e-01 -7.181903e-02 -3.253778e-02 -7.181903e-02 -3.253778e-02 +5.728914e-01 -6.531663e-01
2.985000e+09 +5.788030e-01 -6.497827e-01 -7.072046e-02 -3.171370e-02 -7.072046e-02 -3.171370e-02 +5.788030e-01 -6.497827e-01
2.990000e+09 +5.845756e-01 -6.464070e-01 -6.964669e-02 -3.091809e-02 -6.964669e-02 -3.091809e-02 +5.845756e-01 -6.464070e-01
2.995000e+09 +5.902133e-01 -6.430407e-01 -6.859702e-02 -3.014970e-02 -6.859702e-02 -3.014970e-02 +5.902133e-01 -6.430407e-01
3.000000e+09 +5.957201e-01 -6.396852e-01 -6.757080e-02 -2.940738e-02 -6.757080e-02 -2.940738e-02 +5.957201e-01 -6.396852e-01
3.005000e+09 +6.010998e-01 -6.363418e-01 -6.656738e-02 -2.869002e-02 -6.656738e-02 -2.869002e-02 +6.010998e-01 -6.363418e-01
3.010000e+09 +6.063562e-01 -6.330119e-01 -6.558613e-02 -2.799657e-02 -6.558613e-02 -2.799657e-02 +6.063562e-01 -6.330119e-01
3.015000e+09 +6.114928e-01 -6.296965e-01 -6.462644e-02 -2.732604e-02 -6.462644e-02 -2.732604e-02 +6.114928e-01 -6.296965e-01
3.020000e+09 +6.165132e-01 -6.263966e-01 -6.368773e-02 -2.667747e-02 -6.368773e-02 -2.667747e-02 +6.165132e-01 -6.263966e-01
3.025000e+09 +6.214208e-01 -6.231132e-01 -6.276943e-02 -2.604997e-02 -6.276943e-02 -2.604997e-02 +6.214208e-01 -6.231132e-01
3.030000e+09 +6.262187e-01 -6.198470e-01 -6.187098e-02 -2.544267e-02 -6.187098e-02 -2.544267e-02 +6.262187e-01 -6.198470e-01
3.035000e+09 +6.309102e-01 -6.165989e-01 -6.099183e-02 -2.485476e-02 -6.099183e-02 -2.485476e-02 +6.309102e-01 -6.165989e-01
3.040000e+09 +6.354982e-01 -6.133696e-01 -6.013147e-02 -2.428547e-02 -6.013147e-02 -2.428547e-02 +6.354982e-01 -6.133696e-01
3.045000e+09 +6.399858e-01 -6.101597e-01 -5.928939e-02 -2.373405e-02 -5.928939e-02 -2.373405e-02 +6.399858e-01 -6.101597e-01
3.050000e+09 +6.443757e-01 -6.069697e-01 -5.846511e-02 -2.319980e-02 -5.846511e-02 -2.319980e-02 +6.443757e-01 -6.069697e-01
3.055000e+09 +6.486707e-01 -6.038001e-01 -5.765813e-02 -2.268205e-02 -5.765813e-02 -2.268205e-02 +6.486707e-01 -6.038001e-01
3.060000e+09 +6.528735e-01 -6.006514e-01 -5.686800e-02 -2.218016e-02 -5.686800e-02 -2.218016e-02 +6.528735e-01 -6.006514e-01
3.065000e+09 +6.569866e-01 -5.975241e-01 -5.609428e-02 -2.169351e-02 -5.609428e-02 -2.169351e-02 +6.569866e-01 -5.975241e-01
3.070000e+09 +6.610125e-01 -5.944184e-01 -5.533653e-02 -2.122154e-02 -5.533653e-02 -2.122154e-02 +6.610125e-01 -5.944184e-01
3.075000e+09 +6.649536e-01 -5.913347e-01 -5.459432e-02 -2.076367e-02 -5.459432e-02 -2.076367e-02 +6.649536e-01 -5.913347e-01
3.080000e+09 +6.688123e-01 -5.882732e-01 -5.386725e-02 -2.031938e-02 -5.386725e-02 -2.031938e-02 +6.688123e-01 -5.882732e-01
3.085000e+09 +6.725908e-01 -5.852342e-01 -5.315492e-02 -1.988817e-02 -5.315492e-02 -1.988817e-02 +6.725908e-01 -5.852342e-01
3.090000e+09 +6.762912e-01 -5.822179e-01 -5.245694e-02 -1.946954e-02 -5.245694e-02 -1.946954e-02 +6.762912e-01 -5.822179e-01
3.095000e+09 +6.799156e-01 -5.792244e-01 -5.177296e-02 -1.906304e-02 -5.177296e-02 -1.906304e-02 +6.799156e-01 -5.792244e-01
3.100000e+09 +6.834662e-01 -5.762538e-01 -5.110259e-02 -1.866823e-02 -5.110259e-02 -1.866823e-02 +6.834662e-01 -5.762538e-01
3.105000e+09 +6.869449e-01 -5.733064e-01 -5.044550e-02 -1.828467e-02 -5.044550e-02 -1.828467e-02 +6.869449e-01 -5.733064e-01
3.110000e+09 +6.903535e-01 -5.703821e-01 -4.980134e-02 -1.791197e-02 -4.980134e-02 -1.791197e-02 +6.903535e-01 -5.703821e-01
3.115000e+09 +6.936939e-01 -5.674811e-01 -4.916979e-02 -1.754974e-02 -4.916979e-02 -1.754974e-02 +6.936939e-01 -5.674811e-01
3.120000e+09 +6.969680e-01 -5.646033e-01 -4.855052e-02 -1.719761e-02 -4.855052e-02 -1.719761e-02 +6.969680e-01 -5.646033e-01
3.125000e+09 +7.001774e-01 -5.617489e-01 -4.794322e-02 -1.685522e-02 -4.794322e-02 -1.685522e-02 +7.001774e-01 -5.617489e-01
3.130000e+09 +7.033238e-01 -5.589177e-01 -4.734760e-02 -1.652223e-02 -4.734760e-02 -1.652223e-02 +7.033238e-01 -5.589177e-01
3.135000e+09 +7.064089e-01 -5.561098e-01 -4.676335e-02 -1.619832e-02 -4.676335e-02 -1.619832e-02 +7.064089e-01 -5.561098e-01
3.140000e+09 +7.094343e-01 -5.533251e-01 -4.619021e-02 -1.588317e-02 -4.619021e-02 -1.588317e-02 +7.094343e-01 -5.533251e-01
3.145000e+09 +7.124013e-01 -5.505636e-01 -4.562788e-02 -1.557649e-02 -4.562788e-02 -1.557649e-02 +7.124013e-01 -5.505636e-01
3.150000e+09 +7.153116e-01 -5.478252e-01 -4.507611e-02 -1.527798e-02 -4.507611e-02 -1.527798e-02 +7.153116e-01 -5.478252e-01
3.155000e+09 +7.181666e-01 -5.451099e-01 -4.453464e-02 -1.498738e-02 -4.453464e-02 -1.498738e-02 +7.181666e-01 -5.451099e-01
3.160000e+09 +7.209676e-01 -5.424175e-01 -4.400322e-02 -1.470442e-02 -4.400322e-02 -1.470442e-02 +7.209676e-01 -5.424175e-01
3.165000e+09 +7.237160e-01 -5.397480e-01 -4.348159e-02 -1.442884e-02 -4.348159e-02 -1.442884e-02 +7.237160e-01 -5.397480e-01
3.170000e+09 +7.264131e-01 -5.371012e-01 -4.296953e-02 -1.416040e-02 -4.296953e-02 -1.416040e-02 +7.264131e-01 -5.371012e-01
3.175000e+09 +7.290602e-01 -5.344771e-01 -4.246680e-02 -1.389887e-02 -4.246680e-02 -1.389887e-02 +7.290602e-01 -5.344771e-01
3.180000e+09 +7.316585e-01 -5.318755e-01 -4.197319e-02 -1.364403e-02 -4.197319e-02 -1.364403e-02 +7.316585e-01 -5.318755e-01
3.185000e+09 +7.342092e-01 -5.292962e-01 -4.148846e-02 -1.339564e-02 -4.148846e-02 -1.339564e-02 +7.342092e-01 -5.292962e-01
3.190000e+09 +7.367134e-01 -5.267392e-01 -4.101242e-02 -1.315352e-02 -4.101242e-02 -1.315352e-02 +7.367134e-01 -5.267392e-01
3.195000e+09 +7.391723e-01 -5.242043e-01 -4.054486e-02 -1.291746e-02 -4.054486e-02 -1.291746e-02 +7.391723e-01 -5.242043e-01
3.200000e+09 +7.415869e-01 -5.216914e-01 -4.008558e-02 -1.268726e-02 -4.008558e-02 -1.268726e-02 +7.415869e-01 -5.216914e-01
3.205000e+09 +7.439584e-01 -5.192002e-01 -3.963438e-02 -1.246274e-02 -3.963438e-02 -1.246274e-02 +7.439584e-01 -5.192002e-01
3.210000e+09 +7.462877e-01 -5.167307e-01 -3.919108e-02 -1.224374e-02 -3.919108e-02 -1.224374e-02 +7.462877e-01 -5.167307e-01
3.215000e+09 +7.485758e-01 -5.142826e-01 -3.875550e-02 -1.203006e-02 -3.875550e-02 -1.203006e-02 +7.485758e-01 -5.142826e-01
3.220000e+09 +7.508238e-01 -5.118558e-01 -3.832746e-02 -1.182155e-02 -3.832746e-02 -1.182155e-02 +7.508238e-01 -5.118558e-01
3.225000e+09 +7.530325e-01 -5.094502e-01 -3.790678e-02 -1.161806e-02 -3.790678e-02 -1.161806e-02 +7.530325e-01 -5.094502e-01
3.230000e+09 +7.552028e-01 -5.070655e-01 -3.749330e-02 -1.141942e-02 -3.749330e-02 -1.141942e-02 +7.552028e-01 -5.070655e-01
3.235000e+09 +7.573357e-01 -5.047016e-01 -3.708685e-02 -1.122550e-02 -3.708685e-02 -1.122550e-02 +7.573357e-01 -5.047016e-01
3.240000e+09 +7.594320e-01 -5.023583e-01 -3.668728e-02 -1.103614e-02 -3.668728e-02 -1.103614e-02 +7.594320e-01 -5.023583e-01
3.245000e+09 +7.614925e-01 -5.000354e-01 -3.629443e-02 -1.085122e-02 -3.629443e-02 -1.085122e-02 +7.614925e-01 -5.000354e-01
3.250000e+09 +7.635181e-01 -4.977327e-01 -3.590816e-02 -1.067060e-02 -3.590816e-02 -1.067060e-02 +7.635181e-01 -4.977327e-01
3.255000e+09 +7.655096e-01 -4.954500e-01 -3.552831e-02 -1.049416e-02 -3.552831e-02 -1.049416e-02 +7.655096e-01 -4.954500e-01
3.260000e+09 +7.674676e-01 -4.931873e-01 -3.515475e-02 -1.032176e-02 -3.515475e-02 -1.032176e-02 +7.674676e-01 -4.931873e-01
3.265000e+09 +7.693930e-01 -4.909442e-01 -3.478733e-02 -1.015330e-02 -3.478733e-02 -1.015330e-02 +7.693930e-01 -4.909442e-01
3.270000e+09 +7.712865e-01 -4.887206e-01 -3.442593e-02 -9.988665e-03 -3.442593e-02 -9.988665e-03 +7.712865e-01 -4.887206e-01
3.275000e+09 +7.731488e-01 -4.865163e-01 -3.407040e-02 -9.827737e-03 -3.407040e-02 -9.827737e-03 +7.731488e-01 -4.865163e-01
3.280000e+09 +7.749806e-01 -4.843311e-01 -3.372063e-02 -9.670412e-03 -3.372063e-02 -9.670412e-03 +7.749806e-01 -4.843311e-01
3.285000e+09 +7.767825e-01 -4.821649e-01 -3.337649e-02 -9.516590e-03 -3.337649e-02 -9.516590e-03 +7.767825e-01 -4.821649e-01
3.290000e+09 +7.785552e-01 -4.800174e-01 -3.303786e-02 -9.366170e-03 -3.303786e-02 -9.366170e-03 +7.785552e-01 -4.800174e-01
3.295000e+09 +7.802994e-01 -4.778884e-01 -3.270462e-02 -9.219057e-03 -3.270462e-02 -9.219057e-03 +7.802994e-01 -4.778884e-01
3.300000e+09 +7.820156e-01 -4.757779e-01 -3.237665e-02 -9.075158e-03 -3.237665e-02 -9.075158e-03 +7.820156e-01 -4.757779e-01
3.305000e+09 +7.837044e-01 -4.736855e-01 -3.205386e-02 -8.934385e-03 -3.205386e-02 -8.934385e-03 +7.837044e-01 -4.736855e-01
3.310000e+09 +7.853665e-01 -4.716111e-01 -3.173612e-02 -8.796652e-03 -3.173612e-02 -8.796652e-03 +7.853665e-01 -4.716111e-01
3.315000e+09 +7.870024e-01 -4.695545e-01 -3.142333e-02 -8.661874e-03 -3.142333e-02 -8.661874e-03 +7.870024e-01 -4.695545e-01
3.320000e+09 +7.886127e-01 -4.675156e-01 -3.111539e-02 -8.529971e-03 -3.111539e-02 -8.529971e-03 +7.886127e-01 -4.675156e-01
3.325000e+09 +7.901978e-01 -4.654941e-01 -3.081219e-02 -8.400866e-03 -3.081219e-02 -8.400866e-03 +7.901978e-01 -4.654941e-01
3.330000e+09 +7.917584e-01 -4.634898e-01 -3.051365e-02 -8.274482e-03 -3.051365e-02 -8.274482e-03 +7.917584e-01 -4.634898e-01
3.335000e+09 +7.932949e-01 -4.615027e-01 -3.021966e-02 -8.150747e-03 -3.021966e-02 -8.150747e-03 +7.932949e-01 -4.615027e-01
3.340000e+09 +7.948079e-01 -4.595324e-01 -2.993014e-02 -8.029591e-03 -2.993014e-02 -8.029591e-03 +7.948079e-01 -4.595324e-01
3.345000e+09 +7.962977e-01 -4.575789e-01 -2.964498e-02 -7.910944e-03 -2.964498e-02 -7.910944e-03 +7.962977e-01 -4.575789e-01
3.350000e+09 +7.977650e-01 -4.556420e-01 -2.936411e-02 -7.794741e-03 -2.936411e-02 -7.794741e-03 +7.977650e-01 -4.556420e-01
3.355000e+09 +7.992101e-01 -4.537213e-01 -2.908744e-02 -7.680917e-03 -2.908744e-02 -7.680917e-03 +7.992101e-01 -4.537213e-01
3.360000e+09 +8.006335e-01 -4.518169e-01 -2.881487e-02 -7.569411e-03 -2.881487e-02 -7.569411e-03 +8.006335e-01 -4.518169e-01
3.365000e+09 +8.020356e-01 -4.499286e-01 -2.854634e-02 -7.460163e-03 -2.854634e-02 -7.460163e-03 +8.020356e-01 -4.499286e-01
3.370000e+09 +8.034169e-01 -4.480560e-01 -2.828176e-02 -7.353114e-03 -2.828176e-02 -7.353114e-03 +8.034169e-01 -4.480560e-01
3.375000e+09 +8.047778e-01 -4.461992e-01 -2.802105e-02 -7.248208e-03 -2.802105e-02 -7.248208e-03 +8.047778e-01 -4.461992e-01
3.380000e+09 +8.061187e-01 -4.443578e-01 -2.776414e-02 -7.145391e-03 -2.776414e-02 -7.145391e-03 +8.061187e-01 -4.443578e-01
3.385000e+09 +8.074399e-01 -4.425318e-01 -2.751095e-02 -7.044609e-03 -2.751095e-02 -7.044609e-03 +8.074399e-01 -4.425318e-01
3.390000e+09 +8.087420e-01 -4.407210e-01 -2.726141e-02 -6.945811e-03 -2.726141e-02 -6.945811e-03 +8.087420e-01 -4.407210e-01
3.395000e+09 +8.100252e-01 -4.389252e-01 -2.701545e-02 -6.848947e-03 -2.701545e-02 -6.848947e-03 +8.100252e-01 -4.389252e-01
3.400000e+09 +8.112899e-01 -4.371442e-01 -2.677301e-02 -6.753970e-03 -2.677301e-02 -6.753970e-03 +8.112899e-01 -4.371442e-01
3.405000e+09 +8.125364e-01 -4.353780e-01 -2.653400e-02 -6.660832e-03 -2.653400e-02 -6.660832e-03 +8.125364e-01 -4.353780e-01
3.410000e+09 +8.137652e-01 -4.336262e-01 -2.629837e-02 -6.569488e-03 -2.629837e-02 -6.569488e-03 +8.137652e-01 -4.336262e-01
3.415000e+09 +8.149766e-01 -4.318888e-01 -2.606606e-02 -6.479893e-03 -2.606606e-02 -6.479893e-03 +8.149766e-01 -4.318888e-01
3.420000e+09 +8.161709e-01 -4.301657e-01 -2.583699e-02 -6.392006e-03 -2.583699e-02 -6.392006e-03 +8.161709e-01 -4.301657e-01
3.425000e+09 +8.173484e-01 -4.284566e-01 -2.561112e-02 -6.305784e-03 -2.561112e-02 -6.305784e-03 +8.173484e-01 -4.284566e-01
3.430000e+09 +8.185094e-01 -4.267614e-01 -2.538837e-02 -6.221188e-03 -2.538837e-02 -6.221188e-03 +8.185094e-01 -4.267614e-01
3.435000e+09 +8.196543e-01 -4.250799e-01 -2.516870e-02 -6.138179e-03 -2.516870e-02 -6.138179e-03 +8.196543e-01 -4.250799e-01
3.440000e+09 +8.207834e-01 -4.234121e-01 -2.495204e-02 -6.056717e-03 -2.495204e-02 -6.056717e-03 +8.207834e-01 -4.234121e-01
3.445000e+09 +8.218969e-01 -4.217577e-01 -2.473834e-02 -5.976768e-03 -2.473834e-02 -5.976768e-03 +8.218969e-01 -4.217577e-01
3.450000e+09 +8.229951e-01 -4.201166e-01 -2.452754e-02 -5.898294e-03 -2.452754e-02 -5.898294e-03 +8.229951e-01 -4.201166e-01
3.455000e+09 +8.240784e-01 -4.184887e-01 -2.431960e-02 -5.821261e-03 -2.431960e-02 -5.821261e-03 +8.240784e-01 -4.184887e-01
3.460000e+09 +8.251470e-01 -4.168738e-01 -2.411445e-02 -5.745635e-03 -2.411445e-02 -5.745635e-03 +8.251470e-01 -4.168738e-01
3.465000e+09 +8.262011e-01 -4.152717e-01 -2.391205e-02 -5.671384e-03 -2.391205e-02 -5.671384e-03 +8.262011e-01 -4.152717e-01
3.470000e+09 +8.272411e-01 -4.136824e-01 -2.371235e-02 -5.598475e-03 -2.371235e-02 -5.598475e-03 +8.272411e-01 -4.136824e-01
3.475000e+09 +8.282672e-01 -4.121057e-01 -2.351530e-02 -5.526878e-03 -2.351530e-02 -5.526878e-03 +8.282672e-01 -4.121057e-01
3.480000e+09 +8.292796e-01 -4.105415e-01 -2.332085e-02 -5.456563e-03 -2.332085e-02 -5.456563e-03 +8.292796e-01 -4.105415e-01
3.485000e+09 +8.302786e-01 -4.089896e-01 -2.312896e-02 -5.387499e-03 -2.312896e-02 -5.387499e-03 +8.302786e-01 -4.089896e-01
3.490000e+09 +8.312644e-01 -4.074499e-01 -2.293958e-02 -5.319660e-03 -2.293958e-02 -5.319660e-03 +8.312644e-01 -4.074499e-01
3.495000e+09 +8.322374e-01 -4.059222e-01 -2.275266e-02 -5.253016e-03 -2.275266e-02 -5.253016e-03 +8.322374e-01 -4.059222e-01
3.500000e+09 +8.331976e-01 -4.044065e-01 -2.256817e-02 -5.187542e-03 -2.256817e-02 -5.187542e-03 +8.331976e-01 -4.044065e-01
